DATASET = "thpack3";
INSTANCE = "073";

WIDTH = 233;
HEIGHT = 220;
LENGTH = 587;

NO_OF_SHAPES = 8;
size = [|
  90,73,37 |
  102,95,33 |
  117,38,30 |
  75,73,57 |
  86,36,34 |
  101,81,62 |
  90,66,65 |
  76,69,51 |
|];

verticality = [|
  0,1,1 |
  0,0,1 |
  0,1,1 |
  1,1,1 |
  0,1,1 |
  1,1,1 |
  1,1,1 |
  1,1,1 |
|];

box_count = [
  16,
  16,
  11,
  15,
  12,
  12,
  11,
  12,
];
